(declare-const a Real)
(declare-const b Real)
(declare-const c Real)
(assert (<= (+ (pow a 2) (pow b 2) (pow c 2) (* a b) (* a c) (* b c)) 2))
(assert (> a 0))
(assert (> b 0))
(assert (> c 0))
(assert (not (<= (+ 6 (* (pow (pow (+ a c) -4) (pow (+ 2 (* 4 (pow (* (pow (+ 1 (* a b)) 2) (pow (+ 1 (* b c)) 2) (pow (+ a b) -4) (pow (+ b c) -4)) (pow 4 -1))) (* 2 a c (pow (+ a c) -2))) -1)) (+ -2 (* -4 (pow (* (+ 1 (* a b)) (+ 1 (* b c))) (/ 1 2)) (pow (+ a b) -1) (pow (+ b c) -1)) (* -2 a c (pow (+ a c) -2))))) 0)))
(check-sat)
(get-model)
(exit)